%chk=H2O-7.chk
# opt hf/6-31g geom=connectivity

Title Card Required

0 1
 O                  0.00000000   -2.48214958    1.87537969
 H                  0.00000000    0.78383672   -0.43402142
 H                  0.00000000   -5.74813588   -0.43402143

 1 2 1.0 3 1.0
 2
 3

