%chk=H2O-6.chk
# opt hf/6-31g geom=connectivity

Title Card Required

0 1
 O                  0.00000000   -2.07390130    1.58670455
 H                  0.00000000    0.78383672   -0.43402142
 H                  0.00000000   -4.93163931   -0.43402142

 1 2 1.0 3 1.0
 2
 3

