%chk=H2O-0.chk
# opt hf/6-31g geom=connectivity

Title Card Required

0 1
 O                  0.00000000    0.37558843   -0.14534628
 H                  0.00000000    0.78383672   -0.43402142
 H                  0.00000000   -0.03265986   -0.43402142

 1 2 1.0 3 1.0
 2
 3

